n_res = 4;
rc = [ 0, 0, 0, 0 ];
n_tasks = 30;
d = [ 2, 10, 4, 5, 8, 9, 2, 1, 3, 1, 5, 8, 5, 6, 8, 9, 8, 2, 3, 8, 4, 1, 2, 5, 5, 3, 10, 6, 3, 6 ];
rr = [| 0, 0, 0, 0, 0, 0, 0, 0, 0, 0, 0, 0, 0, 0, 0, 0, 0, 0, 0, 0, 0, 0, 0, 0, 0, 0, 0, 0, 0, 0
      | 0, 0, 0, 0, 0, 0, 0, 0, 0, 0, 0, 0, 0, 0, 0, 0, 0, 0, 0, 0, 0, 0, 0, 0, 0, 0, 0, 0, 0, 0
      | 0, 0, 0, 0, 0, 0, 0, 0, 0, 0, 0, 0, 0, 0, 0, 0, 0, 0, 0, 0, 0, 0, 0, 0, 0, 0, 0, 0, 0, 0
      | 0, 0, 0, 0, 0, 0, 0, 0, 0, 0, 0, 0, 0, 0, 0, 0, 0, 0, 0, 0, 0, 0, 0, 0, 0, 0, 0, 0, 0, 0 |];
suc = [ { 7, 17, 20 },
       { 10, 14, 22 },
       { 4, 6, 9 },
       { 5, 22 },
       { 8, 12, 14 },
       { 13, 15, 19 },
       { 19, 21, 27 },
       { 10, 18, 23 },
       { 10, 12, 14 },
       { 11, 13, 27 },
       { 15, 16, 28 },
       { 15, 18, 23 },
       { 17, 25 },
       { 16, 18, 27 },
       { 20, 30 },
       { 17, 19, 24 },
       { 30 },
       { 20, 24, 25 },
       { 29 },
       { 26 },
       { 22, 23 },
       { 25, 26 },
       { 24 },
       { 26 },
       { 28, 29 },
       { 29 },
       { 28, 30 },
       {  },
       {  },
       {  } ];
